NAME : portgen-50-304
COMMENT : portgen N=50, seed=304
TYPE : TSP
DIMENSION : 50
EDGE_WEIGHT_TYPE : EUC_2D
NODE_COORD_SECTION
1 1291 2174
2 947 130
3 860 1798
4 1579 1138
5 1338 1076
6 20 1861
7 309 982
8 1384 312
9 63 21
10 1869 985
11 614 2786
12 2110 1072
13 841 2121
14 728 2707
15 62 1895
16 2423 1145
17 2901 2118
18 2790 1262
19 903 2939
20 1430 2298
21 167 1875
22 505 1744
23 1494 1722
24 3003 2308
25 1097 2319
26 2316 527
27 208 2194
28 3162 145
29 2435 1991
30 502 2760
31 894 1802
32 2870 2203
33 908 1307
34 1356 1728
35 2650 2824
36 472 918
37 2087 2712
38 1832 86
39 2578 3078
40 1073 695
41 2848 1899
42 2205 464
43 1000 621
44 1437 698
45 1210 1483
46 3069 2338
47 288 1768
48 1826 2412
49 2951 955
50 3074 1408
